letting n =  10
letting blocks =  [[1, 2], [1, 3], [1, 6], [1, 9], [2, 1], [2, 6], [2, 7], [2, 8], [2, 10], [3, 6], [3, 9], [3, 10], [4, 1], [4, 2], [4, 5], [4, 9], [5, 1], [5, 5], [5, 7], [5, 8], [5, 9], [5, 10], [6, 1], [6, 5], [6, 7], [6, 9], [7, 1], [7, 8], [7, 10], [8, 4], [8, 5], [8, 7], [8, 8], [8, 10], [9, 1], [9, 2], [9, 3], [9, 4], [9, 8], [10, 4], [10, 5], [10, 6], [10, 8], [10, 9]]
